50

99 20 201
99 48 309
95 3 207
94 21 346
92 41 224
91 12 404
90 15 195
87 29 324
86 41 346
84 42 371
83 35 307
82 22 173
82 35 376
81 13 413
81 10 250
81 38 403
80 31 267
80 9 199
78 21 311
78 3 243
78 2 442
77 2 441
77 8 177
74 7 237
72 30 446
71 8 352
69 28 430
68 34 279
66 6 295
66 31 406
64 24 399
63 14 450
62 20 387
62 16 203
61 29 216
60 25 276
57 25 377
55 6 205
52 4 172
52 4 392
46 2 302
46 11 221
45 15 233
45 22 449
42 9 361
39 11 419
39 18 413
38 12 272
35 14 412
32 15 398
